p tdp 87 86
38 68
14 31
24 6
78 11
62 79
60 43
50 59
10 47
20 69
62 22
8 81
17 53
44 63
80 24
17 32
52 74
83 42
37 2
85 74
75 77
27 4
49 87
1 18
19 12
58 40
86 54
38 70
76 86
27 1
33 7
51 10
71 4
19 59
52 61
26 79
37 67
25 53
46 7
41 57
62 34
36 67
40 10
26 64
35 65
84 71
2 80
26 28
44 54
85 32
19 77
2 81
87 78
72 13
76 56
9 15
5 73
58 55
60 82
23 27
56 49
40 17
22 68
21 48
14 66
7 12
57 73
71 65
39 3
21 66
13 22
29 9
21 18
16 29
82 5
55 48
30 15
11 8
13 27
14 42
20 42
72 45
54 71
23 60
39 35
33 30
9 10
